benchmarks_vrp/CMT4/fixed_c_size/CMT4_1.vrp
NAME: CMT4_1
TYPE: CVRP
COMMENT: 1028.42 - Cluster Nr.1
DIMENSION: 13
CAPACITY: 200
EDGE_WEIGHT_TYPE: EUC_2D
NODE_COORD_TYPE: TWOD_COORDS
NODE_COORD_SECTION: 
8 49 49
2 53 52
1 55 54
12 65 55
13 57 58
9 47 47
10 49 58
4 61 52
11 58 48
6 35 35
7 57 48
3 55 60
5 55 45
DEPOT_SECTION: 
6
-1
DEMAND_SECTION: 
3 16
11 6
5 13
7 23
13 28
1 26
2 11
12 14
8 30
10 10
4 3
9 13
6 0
EOF
