benchmarks_vrp/CMT4/fixed_c_size/CMT4_1.tour
NAME: CMT4_1 solution
TYPE: TOUR
TOUR_SECTION:
6 5 7 11 4 12 13 3 10 1 2 8 9 -1
-1
EOF